CMD:
./solvers/bin/cadical --plain --no-reduce -t 1600 ./data/cnfs//pdtswvtms12x8p1/pdtswvtms12x8p1.81.cnf

c --- [ banner ] -------------------------------------------------------------
c 
c CaDiCaL SAT Solver
c Copyright (c) 2016-2024
c A. Biere, M. Fleury, N. Froleyks, K. Fazekas, F. Pollitt, T. Faller
c JKU Linz, University of Freiburg, TU Wien
c 
c Version 2.1.3 5296d3d2a9bf48c154ab2acb5e44625776d821bf
c g++ (Gentoo 12.3.1_p20230526 p2) 12.3.1 20230526 -Wall -Wextra -O3 -DNDEBUG
c Sat Aug 9 07:26:21 PDT 2025 Linux cedar2.int.cedar.computecanada.ca 5.14.0-362.24.2.el9_3.x86_64 x86_64
c 
c --- [ limit ] --------------------------------------------------------------
c 
c setting time limit to 1600 seconds real time (due to '-t 1600')
c 
c --- [ parsing input ] ------------------------------------------------------
c 
c reading DIMACS file from './data/cnfs//pdtswvtms12x8p1/pdtswvtms12x8p1.81.cnf'
c opening file to read './data/cnfs//pdtswvtms12x8p1/pdtswvtms12x8p1.81.cnf'
c found 'p cnf 197429 586765' header
c parsed 586765 clauses in 0.11 seconds process time
c 
c --- [ options ] ------------------------------------------------------------
c 
c   --compact=false                (different from default 'true')
c   --decompose=false              (different from default 'true')
c   --deduplicate=false            (different from default 'true')
c   --elim=false                   (different from default 'true')
c   --probe=false                  (different from default 'true')
c   --reduce=false                 (different from default 'true')
c   --subsume=false                (different from default 'true')
c   --ternary=false                (different from default 'true')
c   --transred=false               (different from default 'true')
c   --vivify=false                 (different from default 'true')
c 
c --- [ solving ] ------------------------------------------------------------
c 
c time measured in process time since initialization
c 
c  seconds  reductions  redundant  irredundant
c         MB    restarts       trail       variables
c          level   conflicts       glue          remaining
c 
c *  0.11 95  0 0   0    0    0  0% 0 573622 183878 93%
c {  0.20 98  0 0   0    0    0  0% 0 573622 183878 93%
c i  0.20 98 70 0   0    7    5  9% 5 573622 183822 93%
c i  0.23 98 63 0  14  426  371 11% 5 573622 183770 93%
c i  0.23 98 63 0  14  427  371 11% 5 573622 182822 93%
c i  0.24 98 56 0  16  494  423 11% 4 573622 182821 93%
c i  0.24 98 55 0  16  496  424 11% 4 573622 182811 93%
c i  0.25 98 66 0  20  552  460 11% 5 573622 182801 93%
c i  0.26 98 59 0  41  640  532 11% 5 573622 182783 93%
c i  0.26 98 59 0  41  641  532 11% 5 573622 182779 93%
c i  0.26 98 59 0  41  644  534 11% 5 573622 182736 93%
c }  0.30 98 116 0  46 1005  809 15% 4 573622 182736 93%
c [  0.30 98  0 0  46 1005  809  0% 0 573622 182736 93%
c O  0.32 99 41 0  46 1006  810 90% 1 573622 182736 93%
c i  0.36 99 119 0  46 1062  860 85% 3 573622 182720 93%
c i  0.40 99 136 0  46 1130  919 82% 3 573622 182716 93%
c i  0.79 99 98 0  47 3011 2526 49% 9 573622 182656 93%
c ]  0.79 99 98 0  47 3011 2526 49% 9 573622 182656 93%
c {  0.79 99 116 0  47 3011 2526 15% 4 573622 182656 93%
c F  0.79 99 116 0  47 3012 2527 15% 4 573622 182656 93%
c 
c  seconds   reductions  redundant  irredundant
c         MB     restarts       trail       variables
c           level   conflicts       glue          remaining
c 
c i  0.80 99 106 0  47 3128 2628 15% 4 573622 182631 93%
c i  0.84 100 81 0  74 3595 3022 16% 4 573622 182595 92%
c i  0.88 100 78 0  98 3835 3241 17% 4 573622 182582 92%
c i  0.89 100 77 0 104 3858 3256 17% 4 573622 182543 92%
c i  0.89 100 76 0 109 3876 3259 17% 4 573622 182272 92%
c i  1.12 100 86 0 200 5131 4318 19% 4 573622 182259 92%
c i  1.12 100 84 0 202 5211 4383 19% 4 573622 182247 92%
c i  1.12 100 83 0 202 5234 4401 19% 4 573622 182235 92%
c i  1.20 100 77 0 234 5575 4690 19% 4 573622 182226 92%
c i  1.20 100 77 0 234 5576 4690 19% 4 573622 182188 92%
c #  1.25 100 192 0 236 6016 4978 25% 4 573622 182188 92%
c i  1.30 101 173 0 245 6587 5483 25% 4 573622 182175 92%
c i  1.30 101 171 0 245 6659 5543 25% 4 573622 182151 92%
c }  1.34 101 161 0 262 7011 5835 25% 4 573622 182151 92%
c [  1.34 101 98 0 262 7011 5835 49% 9 573622 182151 92%
c i  1.34 101 98 0 262 7012 5835 49% 9 573622 182099 92%
c i  1.34 101 98 0 262 7014 5836 49% 9 573622 182098 92%
c i  1.47 101 85 0 263 7757 6445 42% 9 573622 181928 92%
c i  1.62 101 80 0 263 8687 7246 50% 8 573622 181927 92%
c i  1.67 101 79 0 263 9025 7517 51% 7 573622 181206 92%
c 
c  seconds   reductions  redundant  irredundant
c          MB    restarts       trail       variables
c           level   conflicts       glue          remaining
c 
c i  1.74 101 78 0 264 9295 7769 53% 7 573622 180983 92%
c I  1.83 101 74 0 264 10017 8424 51% 7 573622 180983 92%
c i  1.90 101 73 0 265 10435 8786 49% 7 573622 180963 92%
c i  1.90 101 73 0 265 10436 8786 49% 7 573622 180962 92%
... skipped 65 lines ...
c i  4.06 103 98 0 655 19685 16631 30% 4 573622 156877 79%
c 
c  seconds   reductions    redundant  irredundant
c          MB    restarts         trail       variables
c           level    conflicts        glue          remaining
c 
c i  4.06 103 98 0 655 19686 16631 30% 4 573622 156865 79%
c i  4.15 103 96 0 675 19890 16799 30% 4 573622 155817 79%
c i  4.35 103 93 0 722 20218 17089 31% 4 573622 155805 79%
c i  4.46 103 93 0 743 20309 17174 31% 5 573622 155756 79%
c i  4.56 103 92 0 773 20440 17288 31% 5 573622 155747 79%
c i  4.60 103 91 0 788 20513 17340 31% 5 573622 155696 79%
c W  5.08 105 88 0 819 21022 10713 32% 5 424490 155696 79%
c i  5.40 105 84 0 859 21628 11247 32% 5 424490 155635 79%
c i  5.79 105 83 0 892 21932 11520 33% 5 424490 155626 79%
c i  5.79 105 83 0 892 21933 11520 33% 5 424490 155596 79%
c i  5.86 105 83 0 892 21971 11547 33% 5 424490 154740 78%
c i  6.12 105 81 0 915 22169 11709 33% 5 424490 154455 78%
c i  6.12 105 81 0 915 22175 11714 33% 5 424490 154409 78%
c i  6.12 105 81 0 915 22191 11727 33% 5 424490 154398 78%
c i  6.12 105 81 0 915 22203 11731 33% 5 424490 154366 78%
c i  6.15 105 81 0 915 22224 11750 33% 5 424490 144500 73%
c i  6.15 105 81 0 915 22226 11751 33% 5 424490 144343 73%
c i  6.29 105 80 0 924 22482 11970 33% 5 424490 144330 73%
c i  6.29 105 80 0 927 22505 11985 33% 5 424490 144026 73%
c i  6.34 105 79 0 938 22564 12026 33% 5 424490 143713 73%
c 
c  seconds   reductions    redundant  irredundant
c          MB    restarts         trail       variables
c           level    conflicts        glue          remaining
c 
c i  6.35 105 79 0 938 22570 12030 33% 5 424490 143661 73%
c i  6.36 105 79 0 938 22588 12044 33% 5 424490 143610 73%
c i  6.60 105 78 0 950 22807 12243 34% 5 424490 143571 73%
c i  6.64 105 78 0 956 22833 12266 34% 5 424490 143540 73%
c i  6.67 105 78 0 963 22858 12288 34% 5 424490 143349 73%
c i  6.73 105 77 0 963 22912 12330 34% 5 424490 143240 73%
c i  6.76 105 77 0 963 22940 12353 34% 5 424490 143207 73%
c i  6.85 105 77 0 963 23066 12442 34% 5 424490 142785 72%
c i  6.85 105 77 0 963 23067 12442 34% 5 424490 142728 72%
c i  6.96 105 76 0 963 23177 12545 34% 5 424490 142677 72%
c i  7.23 105 75 0 980 23326 12665 35% 5 424490 142318 72%
c i  7.23 105 75 0 982 23333 12668 35% 5 424490 142270 72%
c i  7.51 105 75 0 1014 23465 12771 35% 5 424490 142233 72%
c }  7.63 105 74 0 1016 23592 12849 35% 5 424490 133711 68%
c 0  7.63 105 74 0 1016 23592 12849 35% 5 424490 133711 68%
c 
c --- [ result ] -------------------------------------------------------------
c 
s UNSATISFIABLE
c 
c --- [ run-time profiling ] -------------------------------------------------
c 
c process time taken by individual solving procedures
c (percentage relative to process time for solving)
c 
c         7.52  100.00% search
c         5.57   73.98% unstable
c         1.64   21.84% stable
c         0.22    2.94% walk
c         0.11    1.41% parse
c         0.09    1.23% lucky
c         0.00    0.00% simplify
c   =================================
c         7.52   98.60% solve
c 
c last line shows process time for solving
c (percentage relative to total process time)
c 
c --- [ statistics ] ---------------------------------------------------------
c 
c chronological:              8751        37.09 %  of conflicts
c conflicts:                 23592      3135.45    per second
c decisions:                 67984      9035.28    per second
c fixed:                     63718        32.27 %  of all variables
c learned:                   22374        94.84 %  per conflict
c learned_lits:             625331       100.00 %  learned literals
c minimized:                     0         0.00 %  learned literals
c shrunken:                 154242        24.67 %  learned literals
c minishrunken:             123566        19.76 %  learned literals
c otfs:                        288         1.22 %  of conflict
c propagations:           91039751        12.10 M  per second
c rephased:                      6      3932.00    interval
c restarts:                   1016        23.22    interval
c stabilizing:                   2        42.40 %  of conflicts
c subsumed:                   2346         0.39 %  of all clauses
c strengthened:                281         0.05 %  of all clauses
c walked:                        1     23592.00    interval
c 
c seconds are measured in process time for solving
c 
c --- [ resources ] ----------------------------------------------------------
c 
c total process time since initialization:         7.63    seconds
c total real time since initialization:            7.69    seconds
c maximum resident set size of process:          105.66    MB
c 
c --- [ shutting down ] ------------------------------------------------------
c 
c exit 20
